rc1_10_9

VEHICLE
NUMBER   CAPACITY
250     200

CUSTOMER
CUST NO. XCOORD.  YCOORD.  DEMAND  READY TIME DUE DATE  SERVICE TIME

0   250    250     0     0    1821     0
444 480 152 26 977 1097 10
756 484 171 10 248 368 10
493 447 184 27 379 499 10
604 441 177 23 956 1076 10
875 477 179 20 237 357 10
299 500 228 8 737 857 10
672 435 180 37 197 317 10
447 458 213 22 1083 1203 10
648 498 171 12 1211 1331 10
592 452 206 31 447 567 10
91 432 199 7 594 714 10
170 488 173 20 250 370 10
351 476 174 30 279 399 10
591 484 177 20 245 365 10
247 455 168 21 822 942 10
390 452 172 9 563 683 10
191 429 169 8 858 978 10
599 479 169 20 264 384 10
249 439 156 2 481 601 10
890 461 182 13 584 704 10
245 484 174 10 246 366 10
956 428 202 24 859 979 10
888 479 176 20 240 360 10
226 482 184 14 1062 1182 10
611 466 149 16 1141 1261 10
486 495 227 20 299 419 10
